beginners/solutions/Exercise13.out.smt2
sat
(
; cardinality of U is 1
; rep: (as @a0 U)
(define-fun A () (Set U) (set.singleton (as @a0 U)))
(define-fun B () (Set U) (set.singleton (as @a0 U)))
(define-fun C () (Set U) (as set.empty (Set U)))
)
